1 -1 -2 0
1 -1 -3 0
1 -1 -4 0
1 -1 -5 0
1 1 6 0
1 1 7 0
1 -2 -8 0
1 2 -3 0
1 -2 4 0
1 2 -5 0
1 9 -10 0
1 -9 11 0
1 9 -4 0
1 9 -5 0
1 12 10 0
1 12 -11 0
1 -12 -3 0
1 12 -4 0
1 -12 -13 0
1 -12 9 0
1 12 -7 0
1 4 -14 0
1 4 15 0
1 -4 -16 0
1 -4 -17 0
1 4 9 0
1 4 7 0
1 -7 14 0
1 -7 -12 0
1 7 -2 0
1 -7 -4 0
1 -7 16 0
1 -7 -17 0
1 7 -18 0
1 7 -9 0
1 3 14 0
1 3 -19 0
1 3 2 0
1 3 16 0
1 3 -9 0
1 -3 5 0
1 -5 -14 0
1 5 20 0
1 -5 12 0
1 -5 -2 0
1 -5 -3 0
1 -18 11 0
1 18 -4 0
1 -18 -13 0
1 18 -21 0
1 18 7 0
1 22 10 0
1 -22 -11 0
1 -22 19 0
1 -22 -4 0
1 -22 13 0
1 22 -23 0
1 22 18 0
1 -22 7 0
1 17 -11 0
1 17 -24 0
1 17 25 0
1 17 13 0
1 17 -23 0
1 17 -26 0
1 27 11 0
1 27 -23 0
1 27 -17 0
1 -27 -26 0
1 23 28 0
1 23 11 0
1 23 27 0
1 -23 22 0
1 -23 12 0
1 -23 29 0
1 -23 -17 0
1 -23 18 0
1 -23 -9 0
1 -11 30 0
1 -11 -31 0
1 -11 29 0
1 -11 17 0
1 -11 9 0
1 13 27 0
1 13 -12 0
1 -13 -30 0
1 13 -32 0
1 -13 33 0
1 13 16 0
1 13 17 0
1 10 -34 0
1 -10 27 0
1 -10 22 0
1 10 12 0
1 10 13 0
1 -10 -32 0
1 10 -16 0
1 10 -17 0
1 -10 9 0
1 -10 -35 0
1 -29 -28 0
1 -29 24 0
1 29 25 0
1 -29 16 0
1 -28 -11 0
1 -28 -14 0
1 28 24 0
1 28 25 0
1 28 -23 0
1 28 36 0
1 31 11 0
1 -31 24 0
1 -31 23 0
1 31 -26 0
1 -37 -38 0
1 -37 -11 0
1 37 -24 0
1 37 -25 0
1 37 31 0
1 -37 23 0
1 -37 26 0
1 -26 -27 0
1 26 39 0
1 26 -29 0
1 26 40 0
1 -26 41 0
1 25 -37 0
1 -25 28 0
1 25 -27 0
1 25 39 0
1 -25 -31 0
1 -25 29 0
1 25 17 0
1 -25 -26 0
1 25 -41 0
1 36 37 0
1 -36 -24 0
1 -36 39 0
1 -36 -42 0
1 -36 31 0
1 36 29 0
1 36 -17 0
1 -36 -43 0
1 -36 41 0
1 36 -44 0
1 24 -28 0
1 24 -27 0
1 -24 -45 0
1 24 -39 0
1 -24 -17 0
1 -24 35 0
1 -6 -46 0
1 6 -8 0
1 -6 -47 0
1 -6 1 0
1 -8 48 0
1 8 46 0
1 -8 -49 0
1 8 6 0
1 50 -48 0
1 50 46 0
1 -50 51 0
1 50 -52 0
1 50 -47 0
1 50 -49 0
1 -50 53 0
1 50 -54 0
1 -55 47 0
1 -55 49 0
1 -46 20 0
1 -46 19 0
1 -46 55 0
1 -46 8 0
1 46 -6 0
1 -49 20 0
1 49 55 0
1 49 -56 0
1 49 57 0
1 -49 -21 0
1 -49 -50 0
1 -49 -6 0
1 -48 55 0
1 48 8 0
1 -48 47 0
1 48 6 0
1 47 48 0
1 47 -8 0
1 47 -58 0
1 47 -6 0
1 21 -46 0
1 21 -51 0
1 21 -19 0
1 -21 52 0
1 -21 -53 0
1 -21 -54 0
1 21 -18 0
1 19 51 0
1 19 22 0
1 19 -52 0
1 -19 3 0
1 -19 49 0
1 -19 -54 0
1 19 -21 0
1 19 -5 0
1 -57 -46 0
1 -57 -51 0
1 -57 59 0
1 57 -3 0
1 57 49 0
1 -57 -53 0
1 57 17 0
1 57 -54 0
1 -57 60 0
1 57 5 0
1 -20 51 0
1 20 49 0
1 20 53 0
1 -20 -57 0
1 -20 -60 0
1 -20 5 0
1 -52 -61 0
1 -52 38 0
1 -52 14 0
1 52 -20 0
1 52 -62 0
1 -52 -16 0
1 52 57 0
1 -54 38 0
1 -54 -14 0
1 -54 20 0
1 -54 -19 0
1 54 63 0
1 -54 21 0
1 -54 -50 0
1 51 64 0
1 -51 -65 0
1 -51 53 0
1 53 61 0
1 53 20 0
1 53 51 0
1 -53 19 0
1 -53 55 0
1 53 65 0
1 -53 -57 0
1 -53 21 0
1 -53 -50 0
1 16 -14 0
1 -16 66 0
1 16 3 0
1 16 -4 0
1 -16 -13 0
1 -16 29 0
1 16 54 0
1 16 -5 0
1 16 -7 0
1 -14 28 0
1 -14 -52 0
1 -14 -3 0
1 -14 -4 0
1 -14 -13 0
1 -14 54 0
1 14 -67 0
1 14 60 0
1 14 -5 0
1 14 7 0
1 -32 -68 0
1 32 10 0
1 32 59 0
1 32 69 0
1 32 13 0
1 32 31 0
1 32 -60 0
1 -32 70 0
1 -38 68 0
1 -38 -37 0
1 -38 52 0
1 -38 59 0
1 38 66 0
1 38 69 0
1 -38 -15 0
1 -38 -13 0
1 -38 -32 0
1 -38 -54 0
1 38 67 0
1 38 70 0
1 -66 42 0
1 -66 -71 0
1 66 -32 0
1 -66 -16 0
1 -66 -60 0
1 66 72 0
1 66 -35 0
1 -60 38 0
1 -60 -14 0
1 -60 20 0
1 60 73 0
1 60 -42 0
1 60 -74 0
1 60 57 0
1 60 -44 0
1 -60 35 0
1 -59 -61 0
1 59 38 0
1 59 14 0
1 -59 -73 0
1 -59 65 0
1 -59 67 0
1 -59 72 0
1 59 -75 0
1 67 -61 0
1 67 -38 0
1 67 -59 0
1 -67 -76 0
1 67 32 0
1 -67 -77 0
1 -67 72 0
1 67 75 0
1 30 68 0
1 30 -24 0
1 30 -66 0
1 -30 69 0
1 30 -65 0
1 30 -13 0
1 -30 15 0
1 30 36 0
1 30 60 0
1 30 70 0
1 -30 35 0
1 -35 -61 0
1 35 10 0
1 35 -68 0
1 35 30 0
1 35 15 0
1 35 13 0
1 35 23 0
1 -35 60 0
1 -35 70 0
1 42 -78 0
1 42 -24 0
1 -42 66 0
1 -42 15 0
1 -42 36 0
1 42 70 0
1 44 34 0
1 -44 78 0
1 -44 -66 0
1 44 -42 0
1 -44 69 0
1 -44 -15 0
1 -44 36 0
1 -44 -75 0
1 15 68 0
1 15 -38 0
1 15 -79 0
1 15 -80 0
1 15 -30 0
1 -15 81 0
1 -15 -82 0
1 15 -44 0
1 15 -35 0
1 -68 -38 0
1 -68 -79 0
1 -68 -80 0
1 -68 -42 0
1 -68 30 0
1 68 -7 0
1 -68 -81 0
1 -68 82 0
1 68 -41 0
1 68 35 0
1 -69 -38 0
1 -69 79 0
1 69 -83 0
1 69 73 0
1 69 -42 0
1 -69 30 0
1 -69 32 0
1 -69 -72 0
1 69 70 0
1 69 -35 0
1 -70 38 0
1 70 -83 0
1 70 -42 0
1 70 -69 0
1 70 32 0
1 -70 -84 0
1 70 72 0
1 70 44 0
1 -39 -68 0
1 -39 34 0
1 -39 78 0
1 39 25 0
1 39 -73 0
1 39 33 0
1 -39 -26 0
1 41 -78 0
1 -41 24 0
1 41 -15 0
1 41 33 0
1 -41 -26 0
1 41 72 0
1 80 -68 0
1 80 -34 0
1 80 45 0
1 -80 -82 0
1 -80 -33 0
1 -80 85 0
1 80 -43 0
1 -80 -40 0
1 82 -34 0
1 -82 45 0
1 -82 80 0
1 82 -15 0
1 -82 85 0
1 82 43 0
1 -82 40 0
1 -85 -78 0
1 85 86 0
1 -85 87 0
1 85 39 0
1 85 42 0
1 -85 -88 0
1 85 -89 0
1 85 41 0
1 85 44 0
1 -78 80 0
1 -78 42 0
1 78 88 0
1 78 -41 0
1 78 -44 0
1 -33 -34 0
1 33 79 0
1 -33 -13 0
1 33 -90 0
1 33 81 0
1 33 -82 0
1 33 41 0
1 -33 -44 0
1 -34 39 0
1 -34 -42 0
1 34 90 0
1 -34 -82 0
1 87 -45 0
1 -87 91 0
1 -87 79 0
1 87 43 0
1 -87 40 0
1 89 -78 0
1 -89 45 0
1 89 87 0
1 89 -85 0
1 89 81 0
1 -86 92 0
1 86 -88 0
1 -86 85 0
1 86 -43 0
1 86 40 0
1 -88 -91 0
1 -88 85 0
1 -88 -90 0
1 88 -43 0
1 -40 -86 0
1 40 -87 0
1 -40 91 0
1 40 -80 0
1 -40 -89 0
1 -40 26 0
1 -91 -87 0
1 91 88 0
1 -91 -89 0
1 -91 40 0
1 43 -86 0
1 43 -45 0
1 43 87 0
1 -43 -88 0
1 -43 36 0
1 43 89 0
1 -45 -24 0
1 45 -86 0
1 -45 88 0
1 45 -89 0
1 -65 -93 0
1 -65 51 0
1 65 52 0
1 -65 -30 0
1 -65 -54 0
1 -61 94 0
1 -61 51 0
1 61 -53 0
1 61 -54 0
1 76 -94 0
1 76 64 0
1 -76 42 0
1 76 56 0
1 -75 93 0
1 -75 -64 0
1 -75 -56 0
1 75 95 0
1 75 -63 0
1 -75 -67 0
1 75 -44 0
1 94 61 0
1 -94 -83 0
1 -94 -73 0
1 94 76 0
1 94 65 0
1 -94 -84 0
1 -94 -72 0
1 56 -61 0
1 56 -94 0
1 56 83 0
1 56 -76 0
1 56 -65 0
1 56 -84 0
1 -56 -72 0
1 -93 48 0
1 93 -65 0
1 93 -58 0
1 -93 -75 0
1 58 -61 0
1 58 93 0
1 58 -47 0
1 -73 -94 0
1 73 -59 0
1 -73 56 0
1 -73 63 0
1 73 67 0
1 73 -72 0
1 72 -64 0
1 -72 -62 0
1 72 59 0
1 72 -60 0
1 72 73 0
1 -72 69 0
1 72 -56 0
1 -72 67 0
1 -72 -41 0
1 -72 -70 0
1 83 -94 0
1 83 -77 0
1 -83 64 0
1 83 80 0
1 -83 -96 0
1 -83 -71 0
1 83 -74 0
1 83 70 0
1 84 64 0
1 -84 -83 0
1 84 96 0
1 -84 71 0
1 84 56 0
1 -84 63 0
1 -84 -82 0
1 -84 -74 0
1 -62 63 0
1 62 -92 0
1 -62 52 0
1 -62 79 0
1 62 83 0
1 -62 73 0
1 -62 76 0
1 62 -90 0
1 -62 81 0
1 -62 -84 0
1 62 -72 0
1 -62 -75 0
1 63 92 0
1 -63 -79 0
1 63 73 0
1 -63 90 0
1 63 -81 0
1 -63 84 0
1 -63 -72 0
1 -64 83 0
1 -64 -95 0
1 64 84 0
1 -64 -72 0
1 -64 75 0
1 -95 64 0
1 -95 83 0
1 -95 73 0
1 95 76 0
1 95 53 0
1 -95 -75 0
1 -79 -34 0
1 79 63 0
1 79 -87 0
1 79 -62 0
1 79 69 0
1 -79 33 0
1 79 81 0
1 79 -77 0
1 -79 74 0
1 79 -70 0
1 -81 68 0
1 -81 -69 0
1 -81 -15 0
1 81 -77 0
1 -81 -74 0
1 -81 -70 0
1 92 -34 0
1 -92 -86 0
1 -92 62 0
1 -92 -96 0
1 -92 71 0
1 92 -63 0
1 92 77 0
1 -90 92 0
1 -90 62 0
1 90 -71 0
1 -90 74 0
1 -71 -79 0
1 71 83 0
1 -71 66 0
1 -71 -81 0
1 71 74 0
1 -74 79 0
1 -74 71 0
1 74 60 0
1 96 -77 0
1 -96 -79 0
1 96 59 0
1 96 83 0
1 -96 -81 0
1 77 92 0
1 77 90 0
1 -77 67 0
1 77 -84 0
